(set-info :Origin "This instance was generated by: BanditFuzz-- an RL fuzzer for SMT solvers" )
(set-info :Author "Joe Scott, Fed Mora, Vijay Ganesh" )
(set-info :Contact "Joe Scott, joseph.scott@uwaterloo.ca")
(set-logic QF_BV)
(declare-const bool_0 Bool)
(declare-const bool_1 Bool)
(declare-const bool_2 Bool)
(declare-const bool_3 Bool)
(declare-const bool_4 Bool)
(declare-const bv_0 (_ BitVec 32))
(declare-const bv_1 (_ BitVec 32))
(declare-const bv_2 (_ BitVec 32))
(declare-const bv_3 (_ BitVec 32))
(declare-const bv_4 (_ BitVec 32))
(assert (not (=> (bvslt #x5105b1f1  #x9cb40cf2 ) (bvslt #x2affe17a  #x993bd2d6 ))))
(assert (bvslt (bvnor (bvxnor #x30ae362b  #x1e143a93 ) (bvxor #x47d1c985  #xb726907a )) (bvudiv (bvsrem #x208f1a76  bv_0) (bvnand bv_3 #x9f8e0cf7 ))))
(assert (bvsge (bvlshr (bvlshr #xd08ef410  bv_2) (bvadd #x651a5cbf  bv_4)) (bvmul (bvand bv_1 bv_3) (bvshl #x86bb7b85  #x47444616 ))))
(assert (bvsle (bvadd (bvand #x229f8eb0  #x2a4951db ) (bvmul #xb97eae1e  bv_2)) (bvshl (bvsub bv_2 bv_1) (bvnand #x7f6ee5a8  bv_3))))
(assert (bvuge (bvsrem (bvudiv #xa7e21fdc  bv_4) (bvxnor bv_2 bv_1)) (bvudiv (bvshl #x52a7cda3  bv_4) (bvurem bv_3 #x2775c90b ))))
(check-sat)
(exit)
